NAME: random-5-5550
TYPE: TSP
COMMENT: size=5 seed=5550
DIMENSION: 12
EDGE_WEIGHT_TYPE: EUC_2D
NODE_COORD_SECTION
+0 850 640
-0 850 640
+1 968 495
-1 333 651
+2 460 961
-2 184 96
+3 283 523
-3 338 117
+4 422 776
-4 831 210
+5 551 233
-5 554 889
PRECEDENCE_SECTION
+0 -0
+1 -1
+2 -2
+3 -3
+4 -4
+5 -5
EOF
